(declare-fun y () Int)
(declare-fun x () Int)

(assert (
and (and (and (and (
>= (/ x 4) (* (/ 10 41) (* 88 y))
) (
<= (/ (+ x (+ x (/ x x))) (- 86 (+ x x))) y
)) (
<= (+ (* (* (- 2 x) 29) x) (/ (- 64 26) (/ 30 x))) y
)) (and (and (
< (- x (- 78 (* 10 x))) (* y (* (* 17 38) 39))
) (
<= (* (/ 95 9) (* (* (/ 83 53) (/ y 96)) 13)) x
)) (
< (* 80 y) (* 99 (/ (/ x (* (* x 95) 45)) 35))
))) (and (and (and (
not (= x (* (/ 48 86) (* y 48)))
) (
>= (/ (* (/ x 96) 97) (/ x (- (/ (* 12 78) x) x))) y
)) (
> x (/ (/ y 73) (* 85 56))
)) (and (and (
>= x (/ (/ y (* 9 (/ 45 39))) 9)
) (
< (/ (/ y 81) (/ 55 61)) (- x (+ 98 (+ 51 13)))
)) (
not (= (/ (/ x x) (+ (* 45 86) 99)) (/ y (/ 10 30)))
)))
))